container_length = 3500;
container_width = 2000;
container_height = 1200;
n = 7;
boxes = [|300, 325, 225, 24
         |700, 350, 225, 9
         |900, 250, 250, 23
         |400, 400, 275, 31
         |1500, 300, 300, 20
         |500, 450, 250, 13
         |200, 200, 200, 10|];
